NAME          DCAP_3_4_2_300_SS215
ROWS
 N  OBJ
 L  CON1
 L  CON2
 L  CON3
 L  CON4
 L  CON5
 L  CON6
 L  CON7
 L  CON8
 L  CON9
 L  CON10
 L  CON11
 L  CON12
 E  CON13
 E  CON14
 E  CON15
 E  CON16
 E  CON17
 E  CON18
 E  CON19
 E  CON20
COLUMNS
    x[1,1]    OBJ       6.180167      CON1      1.000000    
    x[1,1]    CON7      -1.000000     CON8      -1.000000   
    x[1,2]    OBJ       5.039546      CON2      1.000000    
    x[1,2]    CON8      -1.000000   
    x[2,1]    OBJ       6.732585      CON3      1.000000    
    x[2,1]    CON9      -1.000000     CON10     -1.000000   
    x[2,2]    OBJ       7.443064      CON4      1.000000    
    x[2,2]    CON10     -1.000000   
    x[3,1]    OBJ       6.563535      CON5      1.000000    
    x[3,1]    CON11     -1.000000     CON12     -1.000000   
    x[3,2]    OBJ       6.054841      CON6      1.000000    
    x[3,2]    CON12     -1.000000   
    MARKER    'MARKER'                'INTORG'
    u[1,1]    OBJ       48.076654     CON1      -1.000000   
    u[1,2]    OBJ       49.466655     CON2      -1.000000   
    u[2,1]    OBJ       49.996186     CON3      -1.000000   
    u[2,2]    OBJ       32.230043     CON4      -1.000000   
    u[3,1]    OBJ       20.066487     CON5      -1.000000   
    u[3,2]    OBJ       27.484319     CON6      -1.000000   
    y[1,1,1]  OBJ       9.838480      CON7      1.237930    
    y[1,1,1]  CON13     1.000000    
    y[1,1,2]  OBJ       8.001779      CON8      0.589028    
    y[1,1,2]  CON14     1.000000    
    y[1,2,1]  OBJ       7.142170      CON7      1.071408    
    y[1,2,1]  CON15     1.000000    
    y[1,2,2]  OBJ       6.458798      CON8      1.441327    
    y[1,2,2]  CON16     1.000000    
    y[1,3,1]  OBJ       8.034968      CON7      0.921144    
    y[1,3,1]  CON17     1.000000    
    y[1,3,2]  OBJ       7.098881      CON8      0.664532    
    y[1,3,2]  CON18     1.000000    
    y[1,4,1]  OBJ       7.296620      CON7      1.346719    
    y[1,4,1]  CON19     1.000000    
    y[1,4,2]  OBJ       8.258256      CON8      1.088790    
    y[1,4,2]  CON20     1.000000    
    y[2,1,1]  OBJ       7.953324      CON9      1.237930    
    y[2,1,1]  CON13     1.000000    
    y[2,1,2]  OBJ       6.503644      CON10     0.589028    
    y[2,1,2]  CON14     1.000000    
    y[2,2,1]  OBJ       8.014425      CON9      1.071408    
    y[2,2,1]  CON15     1.000000    
    y[2,2,2]  OBJ       5.663289      CON10     1.441327    
    y[2,2,2]  CON16     1.000000    
    y[2,3,1]  OBJ       7.859970      CON9      0.921144    
    y[2,3,1]  CON17     1.000000    
    y[2,3,2]  OBJ       9.294001      CON10     0.664532    
    y[2,3,2]  CON18     1.000000    
    y[2,4,1]  OBJ       5.225150      CON9      1.346719    
    y[2,4,1]  CON19     1.000000    
    y[2,4,2]  OBJ       7.640831      CON10     1.088790    
    y[2,4,2]  CON20     1.000000    
    y[3,1,1]  OBJ       5.412771      CON11     1.237930    
    y[3,1,1]  CON13     1.000000    
    y[3,1,2]  OBJ       6.541043      CON12     0.589028    
    y[3,1,2]  CON14     1.000000    
    y[3,2,1]  OBJ       9.325553      CON11     1.071408    
    y[3,2,1]  CON15     1.000000    
    y[3,2,2]  OBJ       8.807589      CON12     1.441327    
    y[3,2,2]  CON16     1.000000    
    y[3,3,1]  OBJ       9.103840      CON11     0.921144    
    y[3,3,1]  CON17     1.000000    
    y[3,3,2]  OBJ       5.452673      CON12     0.664532    
    y[3,3,2]  CON18     1.000000    
    y[3,4,1]  OBJ       8.785009      CON11     1.346719    
    y[3,4,1]  CON19     1.000000    
    y[3,4,2]  OBJ       6.440477      CON12     1.088790    
    y[3,4,2]  CON20     1.000000    
    z[1,1]    OBJ       587.997581    CON13     1.000000    
    z[1,2]    OBJ       896.848819    CON14     1.000000    
    z[2,1]    OBJ       725.343628    CON15     1.000000    
    z[2,2]    OBJ       890.099879    CON16     1.000000    
    z[3,1]    OBJ       666.970453    CON17     1.000000    
    z[3,2]    OBJ       885.558811    CON18     1.000000    
    z[4,1]    OBJ       893.472670    CON19     1.000000    
    z[4,2]    OBJ       524.727504    CON20     1.000000    
    MARKER    'MARKER'                 'INTEND'
RHS
    RHS       CON1      -0.000000     CON2      -0.000000   
    RHS       CON3      -0.000000     CON4      -0.000000   
    RHS       CON5      -0.000000     CON6      -0.000000   
    RHS       CON7      -0.000000     CON8      -0.000000   
    RHS       CON9      -0.000000     CON10     -0.000000   
    RHS       CON11     -0.000000     CON12     -0.000000   
    RHS       CON13     1.000000      CON14     1.000000    
    RHS       CON15     1.000000      CON16     1.000000    
    RHS       CON17     1.000000      CON18     1.000000    
    RHS       CON19     1.000000      CON20     1.000000    
BOUNDS
 BV BOUND     u[1,1]  
 BV BOUND     u[1,2]  
 BV BOUND     u[2,1]  
 BV BOUND     u[2,2]  
 BV BOUND     u[3,1]  
 BV BOUND     u[3,2]  
 BV BOUND     y[1,1,1]
 BV BOUND     y[1,1,2]
 BV BOUND     y[1,2,1]
 BV BOUND     y[1,2,2]
 BV BOUND     y[1,3,1]
 BV BOUND     y[1,3,2]
 BV BOUND     y[1,4,1]
 BV BOUND     y[1,4,2]
 BV BOUND     y[2,1,1]
 BV BOUND     y[2,1,2]
 BV BOUND     y[2,2,1]
 BV BOUND     y[2,2,2]
 BV BOUND     y[2,3,1]
 BV BOUND     y[2,3,2]
 BV BOUND     y[2,4,1]
 BV BOUND     y[2,4,2]
 BV BOUND     y[3,1,1]
 BV BOUND     y[3,1,2]
 BV BOUND     y[3,2,1]
 BV BOUND     y[3,2,2]
 BV BOUND     y[3,3,1]
 BV BOUND     y[3,3,2]
 BV BOUND     y[3,4,1]
 BV BOUND     y[3,4,2]
 BV BOUND     z[1,1]  
 BV BOUND     z[1,2]  
 BV BOUND     z[2,1]  
 BV BOUND     z[2,2]  
 BV BOUND     z[3,1]  
 BV BOUND     z[3,2]  
 BV BOUND     z[4,1]  
 BV BOUND     z[4,2]  
ENDATA
